Minimize
  - 45 y_0 - 47 y_1 - 49 y_2 - 21 y_3 - 46 y_4 - 40 y_5 - 40 y_6 - 50 y_7
   - 50 y_8 - 24 y_9 - 18 y_10 - 40 y_11 - 55 y_13 - 39 y_14 - 48 y_15
   - 20 y_16 - 41 y_17 - 53 y_18 - 24 y_19 + 750 Constant
Subject To
 c_0: y_18 = 1
 c_1_0: y_0 >= 1
 c_1_1: y_1 >= 1
 c_1_2: y_2 >= 1
 c_1_3: y_3 + y_9 >= 1
 c_1_4: y_4 >= 1
 c_1_5: y_5 >= 1
 c_1_6: y_6 + y_14 >= 1
 c_1_7: y_7 + y_13 >= 1
 c_1_8: y_8 + y_15 >= 1
 c_1_9: y_3 + y_9 >= 1
 c_1_10: y_10 >= 1
 c_1_11: y_11 >= 1
 c_1_12: y_12 >= 1
 c_1_13: y_7 + y_13 >= 1
 c_1_14: y_6 + y_14 >= 1
 c_1_15: y_8 + y_15 >= 1
 c_1_16: y_16 >= 1
 c_1_17: y_17 >= 1
 c_1_18: y_18 >= 1
 c_1_19: y_19 >= 1
Bounds
 Constant = 1
Binaries
 y_0 y_1 y_2 y_3 y_4 y_5 y_6 y_7 y_8 y_9 y_10 y_11 y_12 y_13 y_14 y_15 y_16
 y_17 y_18 y_19
End
